GLPSOL--GLPK LP/MIP Solver 5.0
Parameter(s) specified in the command line:
 --lp ../modeles/5_74.lp --log 5_74.log
Reading problem data from '../modeles/5_74.lp'...
391 rows, 750 columns, 2605 non-zeros
370 integer variables, all of which are binary
1152 lines were read
GLPK Integer Optimizer 5.0
391 rows, 750 columns, 2605 non-zeros
370 integer variables, all of which are binary
Preprocessing...
370 constraint coefficient(s) were reduced
391 rows, 745 columns, 2600 non-zeros
370 integer variables, all of which are binary
Scaling...
 A: min|aij| =  2.922e-03  max|aij| =  4.000e+00  ratio =  1.369e+03
GM: min|aij| =  1.644e-01  max|aij| =  6.083e+00  ratio =  3.700e+01
EQ: min|aij| =  2.703e-02  max|aij| =  1.000e+00  ratio =  3.700e+01
2N: min|aij| =  1.562e-02  max|aij| =  1.689e+00  ratio =  1.081e+02
Constructing initial basis...
Size of triangular part is 391
Solving LP relaxation...
GLPK Simplex Optimizer 5.0
391 rows, 745 columns, 2600 non-zeros
      0: obj =   1.000000000e+01 inf =   1.435e+02 (11)
     44: obj =   9.678009513e-02 inf =   0.000e+00 (0)
*   141: obj =  -2.232909380e+00 inf =   7.123e-17 (0)
OPTIMAL LP SOLUTION FOUND
Integer optimization begins...
Long-step dual simplex will be used
+   141: mip =     not found yet >=              -inf        (1; 0)
+   178: >>>>>  -2.232909380e+00 >=  -2.232909380e+00 < 0.1% (36; 0)
+   178: mip =  -2.232909380e+00 >=     tree is empty   0.0% (0; 71)
INTEGER OPTIMAL SOLUTION FOUND
Time used:   0.0 secs
Memory used: 1.1 Mb (1170921 bytes)
